
  32    4
  10   10   10   10

   0   0   0   0   0  10 2 3 4 5 6 8 9 11 12 26 
   4   1   3   1   0   6 31 16 15 14 13 7 
  10   1   3   5   0   6 25 22 20 19 15 10 
   3   2   0   3   1   5 31 22 16 15 7 
  10   6   2   0   1   4 22 14 13 7 
   7   0   4   5   2   8 29 25 24 22 21 19 18 17 
   4   5   6   3   0   7 29 25 24 21 19 18 17 
   1   4   0   4   6   6 31 30 22 20 17 15 
   9   4   3   3   0   6 31 29 24 19 18 14 
   2   3   8   0   4   4 24 18 17 13 
   2   9   4   0   5   4 30 17 15 13 
   5   0   3   3   6   4 25 22 20 13 
   5   2   3   4   0   3 29 28 21 
  10   0   2   2   5   3 30 23 17 
   4   6   1   2   0   3 29 27 24 
   3   0   5   4   2   3 29 27 24 
   5   4   6   4   0   2 28 27 
   8   0   3   3   9   2 30 27 
   8   4   3   7   0   2 28 27 
   3   6   0   6   3   2 28 27 
   3   0   3   7   3   1 23 
   7   0   5   3   2   1 23 
   9   3   6   0   7   1 27 
   9   4   0   3   1   1 28 
   7   2   0   5   3   1 27 
   1   0   2   2   4   1 29 
   2   0   4   6   3   1 32
   3   0   4   8   8   1 32
   7   0   5   3   5   1 32
   4   5   2   0   1   1 32
   7   5  10   0   7   1 32
   0   0   0   0   0   0 
